 Co Cs Fe  O Sr
   1.000
   11.8200000000000003    0.0000000000000000    0.0000000000000000
    0.0000000000000000   11.8200000000000003    0.0000000000000000
    0.0000000000000000    0.0000000000000000   30.0000000000000000
   Co   Cs   Fe   O    Sr
   18    9   27  135   36
Selective Dynamics
Cartesian
   11.8223311907599058    0.0017824126672405   15.8351214785586834    T  T  T   site_2         Co1
    0.1317924638454005    3.6596687307503042    7.6471468595769929    T  T  T   site_2         Co2
    0.1131019185060022    3.8704156631813942   12.0212259428154873    T  T  T   site_2         Co3
    0.0000000000000000    7.8799999999999724    3.9399999999999116    F  F  F  
    0.2862290358557801    8.0242895560854048    8.1162859909851424    T  T  T   site_2         Co5
   11.8259985815043134    7.9226031802854724   11.9756797614356483    T  T  T   site_2         Co6
    3.9496692707739185   -0.0176772458052557    7.8770680885409039    T  T  T   site_2         Co7
    3.9400000000000279    3.9400000000000279    3.9399999999999116    F  F  F 
    3.9684469517107939    3.9733657279556596   11.9624614892952206    T  T  T   site_2         Co9
    3.9400000000000279    7.8799999999999724    3.9399999999999116    F  F  F 
    7.8799999999999724    0.0000000000000000    0.0000000000000000    F  F  F 
    7.8799999999999724    0.0000000000000000    3.9399999999999116    F  F  F 
    7.9931205362281137   11.8412867769348189    8.0916969289416780    T  T  T   site_2        Co13
    7.8784961139385148    0.0056809482738513   15.8499572664102537    T  T  T   site_2        Co14
    7.8799999999999724    3.9400000000000279    3.9399999999999116    F  F  F 
    7.6133005231943711    3.7639405249424551    8.1278749854626611    T  T  T   site_2        Co16
    7.8609312354156140    3.9040278542965710   12.0071458300552383    T  T  T   site_2        Co17
    7.8799999999999724    7.8799999999999724    0.0000000000000000    F  F  F 
    2.0030583030335580    9.8185184808329016   13.8868229822447589    T  T  T   site_1         Cs1
    2.0012793467319008    1.9906352097296185    9.9380522343387021    T  T  T   site_1         Cs2
    1.9651746391666669    5.9911942475228450    5.9104556619114659    T  T  T   site_1         Cs3
    1.9699999999999720    9.8500000000000281    1.9699999999999558    F  F  F 
    9.8424136218782028    5.8989967609886023   13.8671743575970101    T  T  T   site_1         Cs5
    5.9754742542339860    5.9085991693738666    9.8829451390117278    T  T  T   site_1         Cs6
    5.9239679436527002    5.8940723418276990   18.4346697726251598    T  T  T   site_1         Cs7
    9.7973601094796088    1.9841852014393841    5.9537812457831825    T  T  T   site_1         Cs8
    9.8239896881630635    9.8153492268251714    9.8850858589945592    T  T  T   site_1         Cs9
    0.0000000000000000    0.0000000000000000    0.0000000000000000    F  F  F 
    0.0000000000000000    0.0000000000000000    3.9399999999999116    F  F  F 
    0.0292099566832572   11.7648519673890402    7.8737597401280794    T  T  T   site_2         Fe3
    0.0200424540377553    0.0075334232453255   11.8301388085445005    T  T  T   site_2         Fe4
    0.0000000000000000    3.9400000000000279    0.0000000000000000    F  F  F 
    0.0000000000000000    3.9400000000000279    3.9399999999999116    F  F  F 
    0.0197580568046374    3.9220101137761763   15.8989731677705350    T  T  T   site_2         Fe7
    0.0000000000000000    7.8799999999999724    0.0000000000000000    F  F  F 
   11.8222775786194418    7.8816474704274455   15.9171493678836171    T  T  T   site_2         Fe9
    3.9400000000000279    0.0000000000000000    0.0000000000000000    F  F  F 
    3.9400000000000279    0.0000000000000000    3.9399999999999116    F  F  F 
    3.9745937251740853   11.7570744145761861   11.9319997485360521    T  T  T   site_2        Fe12
    3.9479932500259682    0.0143146278942444   15.8660188812250507    T  T  T   site_2        Fe13
    3.9400000000000279    3.9400000000000279    0.0000000000000000    F  F  F 
    3.8330915986010416    3.9572116683046974    7.9687732017310111    T  T  T   site_2        Fe15
    3.9700313129769342    3.9552685936783978   15.8973616158919349    T  T  T   site_2        Fe16
    3.9400000000000279    7.8799999999999724    0.0000000000000000    F  F  F 
    4.0101410993590019    7.9078247967509059    8.0002275113596131    T  T  T   site_2        Fe18
    3.9833579156857675    7.8872836986243167   11.9539930735170490    T  T  T   site_2        Fe19
    3.9750039171305405    7.8480060281240194   15.9676954673628266    T  T  T   site_2        Fe20
    7.8896709476938662    0.0000982615788470   11.9180607351176846    T  T  T   site_2        Fe21
    7.8799999999999724    3.9400000000000279    0.0000000000000000    F  F  F 
    7.8630198929997572    3.9494381318398797   15.9558969091904661    T  T  T   site_2        Fe23
    7.8799999999999724    7.8799999999999724    3.9399999999999116    F  F  F 
    7.7942954244842824    8.1057198017130432    7.7775939092250876    T  T  T   site_2        Fe25
    7.8433412646173251    7.9078310623286781   12.0779789799232020    T  T  T   site_2        Fe26
    7.8553733363697305    7.8816482950231048   15.9736454071900642    T  T  T   site_2        Fe27
    1.9699999999999720    0.0000000000000000    0.0000000000000000    F  F  F           
    0.0000000000000000    0.0000000000000000    1.9699999999999558    F  F  F           
    0.0000000000000000    1.9699999999999720    0.0000000000000000    F  F  F           
    1.9699999999999720    0.0000000000000000    3.9399999999999116    F  F  F           
    0.1031523995539021   11.7050064320741640    5.8837915739440350    T  T  T           
    0.0000000000000000    1.9699999999999720    3.9399999999999116    F  F  F           
    2.1722339887955737   11.6324285294684380    7.8770323737455730    T  T  T           
    0.0271475587194983   11.7598198782840466    9.8823485329011813    T  T  T           
    0.2185130016040794    1.8718817540386381    7.7850816851837710    T  T  T           
    1.9680182365640948    0.0000883498267644   11.9252582349759333    T  T  T           
   11.7633593283690185    0.0191103834571041   14.0709529486874665    T  T  T           
   11.7111067518832002    1.9151533704065309   12.0218165726351884    T  T  T           
    2.0499737176843991    0.0919307027640495   15.8774225661659578    T  T  T           
    0.0266421235387829    0.0535435537282031   17.6561606577411183    T  T  T           
    0.0276188476004964    2.0244938400797161   15.7985838241476788    T  T  T           
    1.9699999999999720    3.9400000000000279    0.0000000000000000    F  F  F           
    0.0000000000000000    3.9400000000000279    1.9699999999999558    F  F  F           
    0.0000000000000000    5.9100000000000001    0.0000000000000000    F  F  F           
    1.9699999999999720    3.9400000000000279    3.9399999999999116    F  F  F           
   11.8281966821079081    3.9891914351182338    5.8714626591576300    T  T  T           
    0.0000000000000000    5.9100000000000001    3.9399999999999116    F  F  F           
    1.8568236313897339    4.1344336783861264    8.0037471747839408    T  T  T           
   11.7536686879878634    4.0562097462814739   10.3358555513660768    T  T  T           
   11.7401069413604020    6.3615299424168601    7.9581088252831780    T  T  T           
    2.0055047210684043    4.1053837504994846   12.0822730339885087    T  T  T           
    0.0311042210638624    3.8848954429514007   13.8173325689714162    T  T  T           
    0.0628657795298070    6.1760207146334860   11.8266920138117761    T  T  T           
    1.9660385216651937    3.9353498640083164   15.7554902330931998    T  T  T           
    0.0768890852213701    3.8953354804898739   17.7740489137235542    T  T  T           
    0.0764220957977261    5.8524395174269275   15.9314187301139665    T  T  T           
    1.9699999999999720    7.8799999999999724    0.0000000000000000    F  F  F           
    0.0000000000000000    7.8799999999999724    1.9699999999999558    F  F  F           
    0.0000000000000000    9.8500000000000281    0.0000000000000000    F  F  F           
    1.9699999999999720    7.8799999999999724    3.9399999999999116    F  F  F           
   11.7334944057130990    7.9839834737506754    5.6660477043919020    T  T  T           
    0.0000000000000000    9.8500000000000281    3.9399999999999116    F  F  F           
    2.0844735108462897    8.1050375854175520    7.8606887719682010    T  T  T           
    0.2328801143494881    8.0349453853845656    9.8550465903430169    T  T  T           
    0.0100531270388400    9.7626412907708850    7.7080151032367166    T  T  T           
    2.1244473492613865    7.7849054460711233   11.8253042330535845    T  T  T           
   11.8077325489889713    7.8562680043605999   14.0278772203394890    T  T  T           
   11.8090984122887850    9.7280953390693146   11.9523108566265481    T  T  T           
    2.0004318170428586    7.7957093160445154   15.9243213902324996    T  T  T           
   11.8251973601064453    7.8204655469404569   17.7940250202981147    T  T  T           
   11.7510500142705538    9.8093053772701122   15.9624544318973953    T  T  T           
    5.9100000000000001    0.0000000000000000    0.0000000000000000    F  F  F           
    3.9400000000000279    0.0000000000000000    1.9699999999999558    F  F  F           
    3.9400000000000279    1.9699999999999720    0.0000000000000000    F  F  F           
    5.9100000000000001    0.0000000000000000    3.9399999999999116    F  F  F           
    3.9354011131876465   -0.0119779694169642    5.8001722349153999    T  T  T           
    3.9400000000000279    1.9699999999999720    3.9399999999999116    F  F  F           
    5.6913983919483924    0.1794007367375825    7.8899832533346839    T  T  T           
    4.0670126330118430   11.7670204201929387   10.0585424821144027    T  T  T           
    3.8596842903176261    2.0944878067066934    7.6749815440648259    T  T  T           
    5.9370463222814420    0.0663056752477557   11.9725555493316040    T  T  T           
    4.0216713568689206    0.1242649808002813   13.8216649527855004    T  T  T           
    4.0456360460006495    2.1873532749617430   11.9891779518424428    T  T  T           
    5.8715504861097321    0.0339075235410379   15.8196170581202100    T  T  T           
    3.9783903237073668    0.0421646727226211   17.7539888430510651    T  T  T           
    3.9579720089485879    1.9747082685400001   15.7819518462543904    T  T  T           
    5.9100000000000001    3.9400000000000279    0.0000000000000000    F  F  F           
    3.9400000000000279    3.9400000000000279    1.9699999999999558    F  F  F           
    3.9400000000000279    5.9100000000000001    0.0000000000000000    F  F  F           
    5.9100000000000001    3.9400000000000279    3.9399999999999116    F  F  F           
    3.9752192426085773    3.9119571463633598    5.7229913555762701    T  T  T           
    3.9400000000000279    5.9100000000000001    3.9399999999999116    F  F  F           
    5.8971362052332328    3.8569193607544929    7.6924849954446755    T  T  T           
    4.0027473733449970    3.9311999354369114    9.8232666383830622    T  T  T           
    3.9770332928145513    5.9262512286961275    7.8510156626248619    T  T  T           
    6.0916853151192383    3.8743259458854058   11.9666731542594782    T  T  T           
    4.0365653812393951    4.0133337093283235   14.0064740832415406    T  T  T           
    4.0059307872322929    5.7580612115206140   11.9517487751195581    T  T  T           
    5.9070537708560575    3.8876810798658532   15.9296084207389317    T  T  T           
    3.7893057295295400    3.8119012117859343   17.7345567831606203    T  T  T           
    3.9113816033783593    5.9146570836120187   15.9094210530025908    T  T  T           
    5.9100000000000001    7.8799999999999724    0.0000000000000000    F  F  F           
    3.9400000000000279    7.8799999999999724    1.9699999999999558    F  F  F           
    3.9400000000000279    9.8500000000000281    0.0000000000000000    F  F  F           
    5.9100000000000001    7.8799999999999724    3.9399999999999116    F  F  F           
    4.0151111798872936    7.9757870452409705    5.7178205043489241    T  T  T           
    3.9400000000000279    9.8500000000000281    3.9399999999999116    F  F  F           
    5.9486396183047452    7.8604767766905557    7.6595783478289201    T  T  T           
    3.9477637993383645    7.9648055596952076    9.9109049166919228    T  T  T           
    4.1552147358967257    9.8255039784764318    7.8881342908133281    T  T  T           
    5.9353204072234504    7.9647805557108624   11.9250981362049480    T  T  T           
    4.0704657178251580    7.7276773706968127   13.8641360954980950    T  T  T           
    4.0736758515820091    9.8562510547670072   11.8651664259059739    T  T  T           
    5.8812542829283769    7.9174702545781761   15.9202571856202617    T  T  T           
    3.8462449274579420    8.0296087963964080   17.7976272715406942    T  T  T           
    4.0316072089066228    9.8859015300588080   15.8709817193290164    T  T  T           
    9.8500000000000281    0.0000000000000000    0.0000000000000000    F  F  F           
    7.8799999999999724    0.0000000000000000    1.9699999999999558    F  F  F           
    7.8799999999999724    1.9699999999999720    0.0000000000000000    F  F  F           
    9.8500000000000281    0.0000000000000000    3.9399999999999116    F  F  F           
    7.7873643063387137   11.7817677713570621    5.6717126493805292    T  T  T           
    7.8799999999999724    1.9699999999999720    3.9399999999999116    F  F  F           
    9.8074335425792096   11.8440261518251742    7.9224756475994758    T  T  T           
    7.7641923991553545    0.1011381614452618    9.8872411367604691    T  T  T           
    7.7684008821163042    1.9786928366365890    7.8480305931985894    T  T  T           
    9.8518338995633421   11.8272400229173176   12.0344060511756386    T  T  T           
    7.8774727384735437   11.8133501765338469   14.0603917023660507    T  T  T           
    7.8879433067676885    1.8632043731924184   11.9888235975472739    T  T  T           
    9.8282475023455174   11.8140340859868100   15.8738625116551209    T  T  T           
    7.8322871453970064   11.8242735479426671   17.6819744325792350    T  T  T           
    7.8791445819432910    1.9812014222903302   15.8362994839080606    T  T  T           
    9.8500000000000281    3.9400000000000279    0.0000000000000000    F  F  F           
    7.8799999999999724    3.9400000000000279    1.9699999999999558    F  F  F           
    7.8799999999999724    5.9100000000000001    0.0000000000000000    F  F  F           
    9.8500000000000281    3.9400000000000279    3.9399999999999116    F  F  F           
    7.8091335286376689    3.9892744229303481    5.6440473434579070    T  T  T           
    7.8799999999999724    5.9100000000000001    3.9399999999999116    F  F  F           
   10.3333892309158006    3.9945571281859564    8.2338969187554429    T  T  T           
    7.9106544289274368    3.6878662456521982    9.8663091277247421    T  T  T           
    8.0758479796426919    5.3924397539110229    7.8044174528107657    T  T  T           
    9.6052092580920458    3.8437351319424886   11.8667359776726435    T  T  T           
    7.8133941138029179    3.8935995599029321   13.9927960894203967    T  T  T           
    7.8993157602544644    6.0138635653335637   11.8424576682954505    T  T  T           
    9.9087254599602090    3.8721754595727771   15.9175931339916215    T  T  T           
    8.0113716800052241    3.7787981037784446   17.7941286397844500    T  T  T           
    7.8388574177093471    5.8991702789525542   16.0164713539810357    T  T  T           
    9.8500000000000281    7.8799999999999724    0.0000000000000000    F  F  F           
    7.8799999999999724    7.8799999999999724    1.9699999999999558    F  F  F           
    7.8799999999999724    9.8500000000000281    0.0000000000000000    F  F  F           
    9.8500000000000281    7.8799999999999724    3.9399999999999116    F  F  F           
    7.8185000553095190    7.8434380747868513    5.8584391025520413    T  T  T           
    7.8799999999999724    9.8500000000000281    3.9399999999999116    F  F  F           
    9.5556540724927821    7.8532012788947743    7.6714468428246816    T  T  T           
    7.7994188963633473    7.9457976821785188    9.5738536807972032    T  T  T           
    7.6710124845780436   10.0721939919625552    7.7077977243310656    T  T  T           
    9.7354783797023980    7.9066936114923152   11.8893640182281128    T  T  T           
    7.7425002950331425    7.9306293265897656   14.0000731819774558    T  T  T           
    7.7795405167331992    9.8984553915916020   12.0077005755526578    T  T  T           
    9.8250542711979794    7.9229908403185112   15.9380878674812774    T  T  T           
    7.9551861827069601    8.0457766059852762   17.8133392417388059    T  T  T           
    7.8548326961999937    9.8459368233557871   15.8320803516796857    T  T  T           
    2.0402834206040277    1.9005510944460251    5.7769128451643459    T  T  T   site_1         Sr1
    2.0243549909855898    1.9812253709096297   13.8310925866228800    T  T  T   site_1         Sr2
    1.9821877531929206    1.9821319658569980   17.4974566514600802    T  T  T   site_1         Sr3
    1.9699999999999720    5.9100000000000001    1.9699999999999558    F  F  F
    2.0142513500706607    5.8634370052472873   10.0256005013030052    T  T  T   site_1         Sr5
    2.0045789965301308    5.9514880373781098   13.8802489402896914    T  T  T   site_1         Sr6
    1.9707302445601333    5.8783822004386046   17.5634380757493034    T  T  T   site_1         Sr7
    2.0084860299429481    9.8555863975037639    5.8243704668294454    T  T  T   site_1         Sr8
    2.1061466543264808    9.9114074324244967    9.9934221008872868    T  T  T   site_1         Sr9
    1.9699999999999720    1.9699999999999720    1.9699999999999558    F  F  F
    1.9804159245929243    9.8632089863374741   17.4660987871589235    T  T  T   site_1        Sr11
    5.9100000000000001    1.9699999999999720    1.9699999999999558    F  F  F
    5.8803400163876294    1.9482892956956377    5.8277108795527823    T  T  T   site_1        Sr13
    5.8099820408290412    1.9106086503264736   10.0028311079346288    T  T  T   site_1        Sr14
    5.9303245238607607    1.9816467016654213   13.8781731852041279    T  T  T   site_1        Sr15
    5.9100000000000001    5.9100000000000001    1.9699999999999558    F  F  F
    5.8787217037478667    5.8870327776499565    5.8343593733694128    T  T  T   site_1        Sr17
    5.9456704095029256    5.8905401974414637   14.0121752342438395    T  T  T   site_1        Sr18
    5.9100000000000001    9.8500000000000281    1.9699999999999558    F  F  F
    5.8581762496532779    9.8943462698494251    5.8201389050744190    T  T  T   site_1        Sr20
    5.9123563589356953    9.8712400927710426    9.9389420817293921    T  T  T   site_1        Sr21
    5.9006084335283546    9.8559867479547840   13.8873737599120535    T  T  T   site_1        Sr22
    5.9249411347305347    9.8949512617537483   17.5277521019435376    T  T  T   site_1        Sr23
    9.8500000000000281    1.9699999999999720    1.9699999999999558    F  F  F
    9.9311766552676222    1.9979094543449336   10.0205792708829708    T  T  T   site_1        Sr25
    9.8235168151758252    1.9764761581556625   13.8751029184904517    T  T  T   site_1        Sr26
    9.8592975390032898    1.9367963157981694   17.4941852109056448    T  T  T   site_1        Sr27
    9.8500000000000281    5.9100000000000001    1.9699999999999558    F  F  F
    9.8694619429373116    5.9124415812579105    5.8911847339937555    T  T  T   site_1        Sr29
    9.8187827584579175    5.9281456267844916    9.8890306275912749    T  T  T   site_1        Sr30
    5.9118267846086070    1.9404628806390241   17.5092714419144997    T  T  T   site_1        Sr31
    9.8810777897217523    5.9099384436618587   17.5162291232814056    T  T  T   site_1        Sr32
    9.8500000000000281    9.8500000000000281    1.9699999999999558    F  F  F
    9.8581827568877749    9.8701743694603969    5.8260759809967961    T  T  T   site_1        Sr34
    9.8490708498050665    9.8322988371769675   13.8955392058370730    T  T  T   site_1        Sr35
    9.8115919523646280    9.8710459479014432   17.5304281053242477    T  T  T   site_1        Sr36
