 Ba Co Fe  O Sr
   1.000
   11.9399999999999995    0.0000000000000000    0.0000000000000000
    0.0000000000000000   15.9199999999999999    0.0000000000000000
    0.0000000000000000    0.0000000000000000   19.8999999999999986
   Ba   Co   Fe   O    Sr
   30   48   12  180   30
Selective
Cartesian
    1.9859475208046040    1.9460070270208667    5.9780199058186589 T T T site_1
    2.0023195803254552    1.9427942125261737    9.9142871418440990 T T T site_1
    1.9895095621587491    1.9219604467975535   13.8803041135170862 T T T site_1
    2.0329857557822812    5.9941755530512166   13.9216123134466141 T T T site_1
    1.9869592724641727    5.9244559905873189   17.9582741656446245 T T T site_1
    1.9669493531210223    9.9326282747811998    1.9519229092809909 T T T site_1
    1.9782009908452030   10.0023112305484325   13.9155177954082916 T T T site_1
    2.0178558691479029   13.9574664568775511    1.9439399652197831 T T T site_1
    1.9727019483429307   13.8676185903543594   13.9262250384129906 T T T site_1
    5.9547415444902398    1.9610059691815163    5.9600505008362505 T T T site_1
    5.9462663691626592    1.9534357642390805    9.9135620688041435 T T T site_1
    5.9493178456874771    1.9293324606011015   13.9055114114869660 T T T site_1
    5.9641956339433584    5.9700561972811794    1.9608007349171743 T T T site_1
    5.9424592879343869    5.9385260463795246   17.9563832264168646 T T T site_1
    5.9184314289382103    9.9245926539827529    9.8886977496988724 T T T site_1
    5.9272580894988014   10.0026263425669146   13.9192883324057401 T T T site_1
    5.9490429072716795   13.9532307959703008    1.9408399325624057 T T T site_1
    9.9248584172030352    1.9253862894506619    5.9709983630050765 T T T site_1
    9.9223367230889643    1.9525087560729495    9.8963641008302670 T T T site_1
    9.9422329308376654    1.9180087947677096   13.9254380308507226 T T T site_1
    9.9280836481276076    1.9624822383239233   17.8731769468396848 T T T site_1
    9.9483352366913280    5.9866520553887224    5.9662648715524709 T T T site_1
    9.9381044414484307    6.0372498146615978    9.8921030912984165 T T T site_1
    9.9207403930096110    6.0025075284111491   13.9557652899868074 T T T site_1
    9.9207800912004096    5.9511558904140660   17.9148980316084412 T T T site_1
    9.9300506751758739    9.9540765025190812    1.9340229231212396 T T T site_1
    9.9740220908559412    9.9730248598218765    5.9799060060184326 T T T site_1
    9.9517593672335494    9.9697884391129872   13.9386996724474077 T T T site_1
    9.8723549398704957   13.9049284056385680    5.9539904950346241 T T T site_1
    9.9554401604682408   13.8601283875971912   13.9267019843541640 T T T site_1
   11.9113472581934747   15.9173560955584126    0.0730885991650170 T T T site_2
    0.0723780816808961   15.7914400916534081    7.9338380897615037 T T T site_2
   11.9206178393336995   15.7344260846123518   11.8200668568907670 T T T site_2
   11.8672502086781897   15.8482837350180610   16.2062026969710793 T T T site_2
   11.8766650720041387    3.9643117175253550    0.1093919257890398 T T T site_2
    0.0688946689859381    3.9730697496846883    3.8516920027370372 T T T site_2
   11.8858887156547457    4.1286014365481272    7.9241996702037669 T T T site_2
    0.0609662716428438    4.0263887219980914   11.9003589174598527 T T T site_2
   -0.0300714871219564    4.0560448065016921   15.9059110117912770 T T T site_2
   11.9026440127573228    7.8819697892208120    3.9501264127108788 T T T site_2
    0.0334582813531253    8.0004680745618959    7.9178794958812029 T T T site_2
    0.0234722462328704    7.9555853149834981   11.8637075800297946 T T T site_2
   11.8734396582368245   11.9103373863444268   19.8861290172227001 T T T site_2
    0.0512971862604837   11.9605571700921036    3.9462912787582236 T T T site_2
   11.9257812493147313   11.9186676046465188    7.9305112791621406 T T T site_2
   11.9474565393555174   11.9232693171346238   11.7737779126397530 T T T site_2
   11.9265411984329006   11.8598750004482003   15.9593995887521807 T T T site_2
    3.9602971143685695   15.9138064956036231   19.8578815894099954 T T T site_2
    3.9950481345938571   15.8973335383772376    4.0410660289075375 T T T site_2
    3.9616733964764466   15.8167062815606485    7.9298797981463451 T T T site_2
    4.0463768085393346    3.8558261870401398    0.0383412827962826 T T T site_2
    3.9203307559762597    3.9437384654381926    3.8859623713868494 T T T site_2
    3.9583618271887251    3.9631617675491779    8.0292885877118785 T T T site_2
    3.9207836413266235    4.0680854633540697   11.8781777397105426 T T T site_2
    3.9620860965474987    3.7626729194989217   16.0678112563432549 T T T site_2
    3.9909529769355969    8.0838041703008550    0.0153754839581130 T T T site_2
    4.0176096864425803    7.9534554142064451    4.0193571420598220 T T T site_2
    3.9331903477036572    7.9524714255580067    7.8420450317480901 T T T site_2
    3.9633016424628886    7.9605244300654494   11.8873836274389308 T T T site_2
    3.9899034119326915    8.0451147499133473   16.0502987370707366 T T T site_2
    3.9628430846127727   11.9476527876747962   19.8704429449560429 T T T site_2
    3.9823157485330687   11.9761798959067622    7.8766592075235469 T T T site_2
    3.9455402948029703   11.9058632481371998   11.6936415848858832 T T T site_2
    7.9104206141476885   15.9005791256888944    3.9723520960180112 T T T site_2
    7.9133318667872707    0.0313377860098296    7.9082404097187160 T T T site_2
    7.8337703383520729   -0.0294701357041109   15.9470382383200775 T T T site_2
    7.9324420509700397    4.0185117399863781    3.9355758393235081 T T T site_2
    7.9518943161896027    4.0544852835535918    7.9182546147686539 T T T site_2
    7.9454661692424891    3.9288687584979365   11.9251269027020488 T T T site_2
    7.9688583746080912    3.9539711857529141   15.8978888298693608 T T T site_2
    7.9507929845435363    8.0395368400618921   19.9048411242079126 T T T site_2
    7.8099371004105613    7.9503193417281208    7.8785317272014641 T T T site_2
    7.7992922227805233    7.9430457208467304   12.0317747990792920 T T T site_2
    7.8572309343496753    7.8990968999011697   15.9129882092115142 T T T site_2
    7.9997504419201695   11.9479204675892881   19.8836420002237482 T T T site_2
    7.9066318914754010   11.8582786986579620    3.9976042250131525 T T T site_2
    7.9612292580772328   11.8728028142967350    7.9422458859610403 T T T site_2
    7.9028346815164126   11.9588128745083857   15.9689234132485591 T T T site_2
   11.9374800289045062   15.8289908653061318    3.9614260528055563 T T T site_2
   11.9137216040954765    7.9430477292478470   -0.0081657779807512 T T T site_2
    0.1380980490547026    7.9865271558886652   15.9629767071896840 T T T site_2
    3.9766420698388956   15.8184582316987825   11.9681293338737813 T T T site_2
    3.9695625234052443   15.8422660720566295   15.9310943126996722 T T T site_2
    3.9558700262634146   11.9086022633307103    3.9631514348095713 T T T site_2
    4.0752903696266705   12.0024994497212791   16.0164467408064155 T T T site_2
    7.9566487613431347   15.9038534197098986    0.0686604974329229 T T T site_2
    7.9419500313110429   15.8606877473898304   11.7694075308688966 T T T site_2
    7.9108521626924402    3.8895820242944539    0.1119978130326857 T T T site_2
    7.8950101322496948    7.9557938275223528    3.9679031405157281 T T T site_2
    7.9280047608174202   11.9984912848638228   11.8915664275013100 T T T site_2
    1.9947243333798128    0.0422075014607227   19.8389734876640205 T T T  
   11.8858121551951221    1.7890926768881512    0.0640336772066229 T T T  
   11.9245156697574775    0.0345705275409874    2.0431048596293060 T T T  
    1.9131903664216947   15.8951014348493036    3.9472352455732076 T T T  
   11.9169356490507834    2.2261270574968068    3.9663466978653750 T T T  
    0.0139008357313749   15.8138816072842872    5.8286580476683394 T T T  
    1.9924544426200526   15.7291705184164368    7.9311825246476531 T T T  
   11.9026793182181478    1.6282383966827134    7.9485723724100570 T T T  
   11.9059205362583747   15.8006853227050748   10.0588725036082582 T T T  
    2.0551020539702729   15.7836755744372255   11.7955674023996107 T T T  
   11.8943583987809642    2.2840986722075498   11.8859395884123771 T T T  
    0.0097415821033701   15.8674202239554614   13.5416999777904365 T T T  
    2.1091513604441778   15.8881260720315307   16.0381059853973902 T T T  
    0.0958231200591129    1.6684642966568590   15.9095791758597773 T T T  
    0.0637355566773942   15.8911508680486531   17.9977446734424547 T T T  
    1.6845893963242138    3.8262461709879165    0.0946757632019660 T T T  
   11.9098991337555713    5.8986758920399938    0.0530879106706544 T T T  
   11.6350874239924238    3.9615970169682413    2.0145765763935648 T T T  
    1.9812176248001194    4.0359942602170635    3.6832525977295134 T T T  
   11.8974564632837154    5.7492006005704983    3.9786912795489640 T T T  
    0.0830336179870679    3.9570937570175464    6.1737197164695417 T T T  
    2.2005940221394975    4.0927054168389470    7.9323207933246707 T T T  
    0.1479414923152091    5.9908185749518017    7.9328140900678559 T T T  
    0.0386275678453428    3.9863586958520485    9.6800592263902843 T T T  
    1.9861577501248027    4.0680109042014791   11.7918857609969177 T T T  
   11.9015517407779274    5.8049200555741836   11.8913111700028562 T T T  
    0.0399200455098567    3.9745472820432894   14.1283057443414535 T T T  
    2.2174673206088826    3.9813360917612606   15.8584646327226828 T T T  
    0.0060539456645871    6.0709891513321521   15.9507987885225866 T T T  
    0.0980764486094496    3.8631037317831560   17.6529660678042006 T T T  
    1.8798633721230251    7.9401552419364387   19.8833159730411566 T T T  
   11.9208233065536486    9.9661768255883203   19.7903777278741018 T T T  
   11.8854343152655559    7.8805137896710411    1.9364180954749615 T T T  
    1.7416844884385114    7.9211865207303545    3.8990945662828955 T T T  
   11.9226996447004616   10.2121399262549932    3.9758687914095390 T T T  
    0.0803692304334465    7.9815277783329837    5.9229319933091853 T T T  
    1.8537492608459256    7.9558680559102628    7.9639636917720260 T T T  
    0.1825260005757428   10.0057432525878802    7.9023057741754634 T T T  
    0.0635892822121514    8.0662209072026041    9.9258770522023614 T T T  
    1.8086138848256994    7.9433633133312025   11.9302714644566610 T T T  
    0.0449839264451429   10.1612967163077172   11.8194994524881363 T T T  
   11.9243679674216043    8.0010379196492636   14.0772838598357719 T T T  
    2.0403901360710464    8.0331682701501048   16.0214275940969593 T T T  
   11.8337275526171268    9.8213464321394905   16.1415858340996294 T T T  
   11.8772531002777075    7.9167609426445500   17.9391014096053354 T T T  
    2.1739159384556368   11.9658644936207850   19.8856812245798551 T T T  
   11.8790802218282341   14.1328821823501354    0.0487692240323386 T T T  
   11.9240405519912400   11.9767731673899451    1.7652341801698186 T T T  
    2.0518476940257759   11.9410610282134630    4.0869984014932559 T T T  
   11.9120018595863240   13.7224447012307795    3.9169647631020079 T T T  
    0.0235759597263479   12.0132210307944440    6.1604334622090970 T T T  
    2.2066702381582228   11.9341613847044989    7.8053603797107725 T T T  
   11.8813213925538026   14.0100325954151010    7.9858335776086697 T T T  
    0.1419761103939536   11.9572130210360879    9.6992826197360458 T T T  
    2.0572239029377659   12.0017692419638600   11.8372196810845676 T T T  
   11.8927193655243304   13.6956617534628187   11.8152310986677680 T T T  
   11.9030747653063909   11.9055342016875940   14.1220459901157014 T T T  
    1.7520735759286388   11.8727113421491293   16.1116197657381122 T T T  
    0.1191359585888612   14.1158358026496078   15.9857703246157055 T T T  
    0.0718298591787798   12.0836054603742618   18.1521201186432570 T T T  
    6.0772384454889634    0.1069406092244524   19.8093947344190440 T T T  
    3.8954730520462113    2.0936613252984677    0.0804278307342257 T T T  
    3.9978614776229366    0.0339309293139642    1.7178538532942744 T T T  
    5.9102257194904935    0.0248474241110964    3.8667437163403320 T T T  
    3.9232782471174756    1.7688223877961746    3.9256239078241530 T T T  
    4.0100642090262379   15.8953585102894976    6.1307157021948235 T T T  
    6.1291208843069898   15.7751549539025167    7.9461286048678259 T T T  
    3.9723699762609885    2.0491964000078715    7.9260460044162393 T T T  
    4.0428200368633069   15.7738957242018571    9.6963814214211208 T T T  
    5.9879474983802288   15.8156760721437291   11.9367672796161610 T T T  
    3.9796618281179095    1.7716845248133721   11.8784572085208762 T T T  
    4.0128427503996473   15.7802967863824986   13.9648818336504732 T T T  
    5.8617780604780911   15.7770675904486435   16.0139630559440072 T T T  
    3.9803392686840011    1.8911622040582940   15.9571713593137385 T T T  
    4.0141032822378966    0.1254806759428225   18.0791902894459362 T T T  
    6.0146112680815405    3.8204766272194277   19.8579637897362815 T T T  
    3.8811518389066193    5.6048016118172193    0.0983248592199704 T T T  
    4.0840596882835927    3.8513061507802182    2.1162877335726660 T T T  
    6.1476807155994191    3.9620017785482733    3.9737563856125977 T T T  
    3.9063563116247151    6.1991161936785666    3.8780709187979072 T T T  
    3.9350285690437339    4.0853497321264278    5.6262825566526580 T T T  
    5.7145448273660735    4.1260147605809472    7.8823617316299099 T T T  
    3.9151445035037526    6.1719951047055170    7.9867699185870160 T T T  
    4.0361687596780014    4.0294096404266790   10.0752792989205027 T T T  
    6.1921546058068246    4.0632368623974839   11.8990710203250014 T T T  
    4.0997728445957335    5.9707471705776234   11.8912794505226262 T T T  
    4.0227890922601253    3.9538824696929424   13.6186443407171183 T T T  
    5.6870156283959723    4.0029659807919247   15.8681607302721801 T T T  
    4.0795722741965994    6.3095521940657759   15.8761480765153848 T T T  
    3.9205736361778505    3.8449822984254798   17.9567582857402996 T T T  
    5.9304049101683391    8.0061779918252540    0.0504559538328821 T T T  
    3.9770794270762315    9.9565917316535355   19.8796495577787233 T T T  
    3.9090013591566763    7.9070227713284096    1.7697774069008640 T T T  
    6.0001871089407519    7.9442499388359806    4.0401774656164857 T T T  
    3.9948585083596821    9.7366272719494926    3.9341317930506299 T T T  
    3.7253931054067606    7.9166660332833541    5.9125044394221993 T T T  
    5.8807807311640792    8.0106548769433932    7.7387619714628215 T T T  
    3.8515156430448614    9.7294775841982961    7.9204026388736555 T T T  
    3.8461921007667472    7.9576957332198868   10.1099862083790857 T T T  
    5.9489066572680640    7.8956885186955024   11.7576856944976207 T T T  
    3.9142542106521678   10.0484831437284470   11.8725108288854830 T T T  
    4.0010243617614805    7.9938595623665565   13.6519074102255278 T T T  
    6.0913829874546224    8.1385601405721957   16.0902384572520383 T T T  
    3.9933260752324369    9.8394718805815149   16.0185582585062107 T T T  
    3.9598164853335547    7.9518633735618476   18.1387914820655141 T T T  
    5.7435034402368217   11.9417809570634450   19.8545912478254962 T T T  
    3.9957237438186137   13.9883305653709105   19.7293760741020847 T T T  
    4.0096988056222793   11.9043121392542322    2.0912505589435910 T T T  
    6.0768060629329321   11.8956515980326074    3.8842680633446145 T T T  
    3.9813788874150511   14.0917207463014318    4.0403487225464323 T T T  
    4.1016655218079983   11.8460590475709679    5.7908868686674495 T T T  
    5.7608795561356496   11.8157908711702060    7.8568411085269707 T T T  
    4.0746754071009779   13.8676021572033772    7.7384763418250904 T T T  
    3.9663707653042111   12.0044206737604906    9.8556204629018040 T T T  
    5.9091431382765025   11.9434193155567971   11.9169380009351897 T T T  
    4.0515408314187784   13.9299229822798818   11.8724740718199282 T T T  
    3.9594252381822104   11.9905806749994674   14.2057338431100195 T T T  
    5.9530829462588750   11.9687312442835712   16.0282562045167296 T T T  
    3.9045213132423675   13.9082704385467242   16.1442495631993559 T T T  
    3.9117361325902884   11.8479003727007370   17.8618893620683004 T T T  
    9.8428965940487458   15.8831724823362936   19.8799056123054108 T T T  
    8.0005099712684657    1.9998167275116367   19.8131983229863131 T T T  
    7.9819885050649031    0.0444824142110441    1.9520879333206340 T T T  
   10.0552549830262414   15.8909366828404846    3.9065203998491631 T T T  
    7.9601063164397203    1.7651268224378553    3.9503975159909426 T T T  
    7.8824330069540416   15.8106839988451409    5.9717585937488407 T T T  
    9.6841777316412969   15.7576766678056845    7.9937639633786022 T T T  
    7.9196739816150288    1.9281151350921704    7.9435979046011314 T T T  
    7.8867034324450875   15.7825833744307094    9.8958073603508048 T T T  
    9.8447640777352063   15.8200136869932368   11.8803655628605611 T T T  
    7.9365615665060059    1.9042198459162862   11.9382756520821509 T T T  
    7.9018103831516511   15.7780686449446996   14.1943565186845877 T T T  
   10.0962924089687380   15.8228070511891232   15.9399139096796301 T T T  
    7.8291265454347405    1.9005449389341211   15.9509304895941373 T T T  
    7.9615059405371449   15.8199682190913116   17.7113583318691816 T T T  
   10.0804551283334956    3.8870303672998356   19.8322140421057362 T T T  
    8.0013477899736909    5.7279303226469223    0.0207692689377332 T T T  
    8.0171871209939454    3.8127656836943626    1.9756570720378570 T T T  
    9.6785444672630625    3.9502698432918839    4.0297786511585105 T T T  
    7.9735614684796028    6.0836629529742829    3.9565684687208886 T T T  
    7.8660272823473365    4.0229345431069037    6.1411629590278789 T T T  
    9.9627072457402281    3.9807950358390158    7.9296109635993348 T T T  
    7.7693305256801866    6.0448360309955804    7.8757169056709628 T T T  
    7.8754641095908333    4.0462941976788507    9.6960572071553592 T T T  
    9.7155634439005620    4.0162093991287202   11.9180444520295907 T T T  
    7.9666753689305922    6.1754687087815450   11.8597615510930794 T T T  
    7.8805542067923993    3.9850567142383788   14.1095578140630948 T T T  
    9.9651616111303323    3.9091540595707484   15.8991693824218689 T T T  
    7.7823025152957443    6.0007009753603571   15.8881514277866494 T T T  
    7.8765662823077411    3.9234771657144902   17.6674862755503916 T T T  
    9.9847840292644143    7.9474603048252286   19.8898968894847918 T T T  
    7.8475176160935352    9.9838451957427594   -0.0029700983805180 T T T  
    7.9758909650256840    7.9254562782736233    1.8078412406723594 T T T  
   10.0640731952880937    7.9422608151496252    3.9351807167138579 T T T  
    7.9062643594035853    9.8336355058175524    3.9105025051614843 T T T  
    7.9879927530632475    8.0224422982395609    6.0849042379464970 T T T  
   10.2091653124749850    8.0273621445565446    7.9552413163119704 T T T  
    7.9026958487012324   10.0829051238447125    7.9106819755548914 T T T  
    7.9708015735311815    8.0233021940470071    9.6122396575105356 T T T  
   10.2041157696169478    8.0100933488754968   11.9320369082415976 T T T  
    7.9905485084894456    9.6943432403138488   11.8655051702526144 T T T  
    7.7910495172582781    7.9143047875910701   13.9418495439200392 T T T  
    9.5971765384196068    8.0204299596063571   16.0005055768150584 T T T  
    7.9882129816125396   10.2036646394483981   16.0279893253784351 T T T  
    7.9315200765885159    7.9699212618746049   18.1413848621882785 T T T  
    9.9347042381338344   12.0469462836974355   19.8384608829777598 T T T  
    7.9244480386791878   14.0038564638314202   19.8186485535478560 T T T  
    7.9057835221780106   11.9762833567442613    1.7504932727239586 T T T  
    9.6933901333187009   11.9878895497676918    3.8679933475089827 T T T  
    7.9255392156675342   14.1187546838075786    3.9092242015613716 T T T  
    7.8375441970343438   11.9286027793452689    5.9343893699316634 T T T  
    9.9468356072864754   11.8640301997473951    8.1074694963240823 T T T  
    7.8495621015708608   13.6207541954385203    7.9876950712409096 T T T  
    7.8653857174360873   11.8993239516266147   10.0068667213872473 T T T  
    9.8923091897797377   11.8795424879689477   11.7790955037963929 T T T  
    7.8925179289150291   13.9280710028187809   11.9253206325859296 T T T  
    7.9238644417235555   11.9314275202122069   13.8038290604240999 T T T  
   10.1522318681224863   11.9964487622424834   16.1657194063264846 T T T  
    7.9763346528500731   13.7242723337912960   15.9984223867037905 T T T  
    7.8939712815967082   11.9602817590739328   18.1145610451811976 T T T  
    1.9713530690111540    1.8956518764606909    1.9893850499679300 T T T site_1 
    1.9917798774167466    1.9132565899195861   17.9546501706677972 T T T site_1 
    1.9187039641420824    6.0048921815950234    1.9465712611194701 T T T site_1 
    1.9482084233017076    6.0124694160499867    5.9428148825502332 T T T site_1 
    1.9756810010582193    6.0206775596303430    9.9028445956787188 T T T site_1 
    1.9648174411872159    9.9218272299859418    5.9686138266126845 T T T site_1 
    1.9459980152516343    9.9122487774489603    9.8641615011561665 T T T site_1 
    1.9623657290965106    9.9534981918294321   17.9738253191960311 T T T site_1 
    2.0399607338924688   13.9196751644600738    5.9699206697236598 T T T site_1 
    2.0275480356199651   13.8961060373897656    9.8978277455278931 T T T site_1 
    2.0131276775277969   13.9308281509997176   17.9748898230664516 T T T site_1 
    5.9884214319764286    1.8911182317084776    2.0012762130375643 T T T site_1 
    5.9873540714041384    1.9319669126634216   17.9101636547236467 T T T site_1 
    5.9237865162600425    5.9906349834771344    5.9823233476955746 T T T site_1 
    5.9218969249288840    5.9901661573229994    9.9248440459879745 T T T site_1 
    5.9173905939469451    5.9468332377558486   13.8925537735552727 T T T site_1 
    5.9575319247709677    9.9718593226025583    1.9023187083345803 T T T site_1 
    5.9698719107027243    9.9730113314374123    5.9254698928295877 T T T site_1 
    5.9674647199167339    9.9838198602785155   18.0213561916023544 T T T site_1 
    5.9922356104037577   13.8933041870699387    5.9625978652982869 T T T site_1 
    5.9649421017108928   13.8759659889875628    9.9053646900698382 T T T site_1 
    5.9487965061248911   13.8577263794679322   13.8457180075599791 T T T site_1 
    5.9584987285516817   13.9453275210948728   17.9691398003665661 T T T site_1 
    9.9310372949275418    1.9045823132177953    2.0180198790643025 T T T site_1 
    9.9445550619314869    5.9766021070563218    1.9355110646753140 T T T site_1 
    9.9694778780719506    9.9538927869121050    9.9274402933402488 T T T site_1 
    9.9365225420089622    9.9231972733227476   17.9486272907933859 T T T site_1 
    9.8944182588695249   13.9756305439276272    1.9501775755463349 T T T site_1 
    9.8735652491198937   13.8379947943963266    9.9049763359834078 T T T site_1 
    9.8929987090879656   13.8929663034126261   18.0022384512735130 T T T site_1 
